(written by ASE)

90 atoms
3 atom types

0.0            26.177301606  xlo xhi
0.0      14.765999999999996  ylo yhi
0.0      23.350000000000001  zlo zhi

Masses

     1      12.010999996910238 # C
     2      15.998999995884349 # O
     3      1.0079999997406976 # H

Atoms # atomic

     1   3      7.5000000000000009                       0                  11.375
     2   1      8.4708590125000001                       0      11.675000000000001
     3   1      9.1812885187000006      1.2304999999999999      11.675000000000001
     4   1           10.6021475312      1.2304999999999999      11.675000000000001
     5   1      11.312577037400001                       0      11.675000000000001
     6   1           12.7334360499                       0      11.675000000000001
     7   1           13.4438655561      1.2304999999999999      11.675000000000001
     8   1           14.8647245686      1.2304999999999999      11.675000000000001
     9   1      15.575154074899999                       0      11.675000000000001
    10   1           16.9960130873                       0      11.675000000000001
    11   1      17.706442593599999      1.2304999999999999      11.675000000000001
    12   3            18.677301606      1.2304999999999999      11.975000000000001
    13   3      7.5000000000000009      2.4609999999999999                  11.375
    14   1      8.4708590125000001      2.4609999999999999      11.675000000000001
    15   1      9.1812885187000006                  3.6915      11.675000000000001
    16   1           10.6021475312                  3.6915      11.675000000000001
    17   1      11.312577037400001      2.4609999999999999      11.675000000000001
    18   1           12.7334360499      2.4609999999999999      11.675000000000001
    19   1           13.4438655561                  3.6915      11.675000000000001
    20   1           14.8647245686                  3.6915      11.675000000000001
    21   1      15.575154074899999      2.4609999999999999      11.675000000000001
    22   1           16.9960130873      2.4609999999999999      11.675000000000001
    23   1      17.706442593599999                  3.6915      11.675000000000001
    24   3            18.677301606                  3.6915      11.975000000000001
    25   3      7.5000000000000009      4.9219999999999997                  11.375
    26   1      8.4708590125000001      4.9219999999999997      11.675000000000001
    27   1      9.1812885187000006      6.1524999999999999      11.675000000000001
    28   1           10.6021475312      6.1524999999999999      11.675000000000001
    29   1      11.312577037400001      4.9219999999999997      11.675000000000001
    30   1           12.7334360499      4.9219999999999997      11.675000000000001
    31   1           13.4438655561      6.1524999999999999      11.675000000000001
    32   1           14.8647245686      6.1524999999999999      11.675000000000001
    33   1      15.575154074899999      4.9219999999999997      11.675000000000001
    34   1           16.9960130873      4.9219999999999997      11.675000000000001
    35   1      17.706442593599999      6.1524999999999999      11.675000000000001
    36   3            18.677301606      6.1524999999999999      11.975000000000001
    37   3      7.5000000000000009                   7.383                  11.375
    38   1      8.4708590125000001                   7.383      11.675000000000001
    39   1      9.1812885187000006      8.6135000000000002      11.675000000000001
    40   1           10.6021475312      8.6135000000000002      11.675000000000001
    41   1      11.312577037400001                   7.383      11.675000000000001
    42   1           12.7334360499                   7.383      11.675000000000001
    43   1           13.4438655561      8.6135000000000002      11.675000000000001
    44   1           14.8647245686      8.6135000000000002      11.675000000000001
    45   1      15.575154074899999                   7.383      11.675000000000001
    46   1           16.9960130873                   7.383      11.675000000000001
    47   1      17.706442593599999      8.6135000000000002      11.675000000000001
    48   3            18.677301606      8.6135000000000002      11.975000000000001
    49   3      7.5000000000000009      9.8439999999999994                  11.375
    50   1      8.4708590125000001      9.8439999999999994      11.675000000000001
    51   1      9.1812885187000006                 11.0745      11.675000000000001
    52   1           10.6021475312                 11.0745      11.675000000000001
    53   1      11.312577037400001      9.8439999999999994      11.675000000000001
    54   1           12.7334360499      9.8439999999999994      11.675000000000001
    55   1           13.4438655561                 11.0745      11.675000000000001
    56   1           14.8647245686                 11.0745      11.675000000000001
    57   1      15.575154074899999      9.8439999999999994      11.675000000000001
    58   1           16.9960130873      9.8439999999999994      11.675000000000001
    59   1      17.706442593599999                 11.0745      11.675000000000001
    60   3            18.677301606                 11.0745      11.975000000000001
    61   3      7.5000000000000009                  12.305                  11.375
    62   1      8.4708590125000001                  12.305      11.675000000000001
    63   1      9.1812885187000006      13.535500000000001      11.675000000000001
    64   1           10.6021475312      13.535500000000001      11.675000000000001
    65   1      11.312577037400001                  12.305      11.675000000000001
    66   1           12.7334360499                  12.305      11.675000000000001
    67   1           13.4438655561      13.535500000000001      11.675000000000001
    68   1           14.8647245686      13.535500000000001      11.675000000000001
    69   1      15.575154074899999                  12.305      11.675000000000001
    70   1           16.9960130873                  12.305      11.675000000000001
    71   1      17.706442593599999      13.535500000000001      11.675000000000001
    72   3            18.677301606      13.535500000000001      11.975000000000001
    73   2           13.4438655561                  3.6915      10.165000000000001
    74   3      13.933865556080427      2.8427951042799506      10.165000000000001
    75   2           14.8647245686      8.6135000000000002      10.165000000000001
    76   3      14.374724568567842      7.7647951043098171      10.165000000000001
    77   2      11.312577037400001      9.8439999999999994                  13.185
    78   3      11.802577037380427      8.9952951042799505                  13.185
    79   2           12.7334360499                   7.383                  13.185
    80   3           13.7134360499                   7.383                  13.185
    81   2      15.575154074899999      2.4609999999999999      10.165000000000001
    82   3      16.065154074932156      1.6122951043098162      10.165000000000001
    83   2           10.6021475312      8.6135000000000002      10.165000000000001
    84   3      10.112147531219572      7.7647951042799512      10.165000000000001
    85   2           10.9573622843      4.3067500000000001      10.415000000000001
    86  2      12.023006543649998                       0                  12.935
    87   2           10.9573622843                11.68975      10.415000000000001
    88   2            13.088650803      1.8457499999999998      10.415000000000001
    89   2      16.285583581099999                  12.305                  12.935
    90   2           10.9573622843      6.7677499999999995                  12.935

