# LAMMPS data file written by OVITO Basic 3.10.6

1245 atoms
3 atom types

0.0 60.2779179055 xlo xhi
0.0 54.142 ylo yhi
0.0 23.35 zlo zhi

Atom Type Labels

1 C
2 O
3 H

Masses

1 12.0109999969  # C
2 15.9989999959  # O
3 1.0079999997  # H

Atoms  # atomic

1 3 7.5 0.0 11.375
2 1 8.4708590125 0.0 11.675
3 1 9.1812885187 1.2305 11.675
4 1 10.6021475312 1.2305 11.675
5 1 11.3125770374 0.0 11.675
6 1 12.7334360499 0.0 11.675
7 1 13.4438655561 1.2305 11.675
8 1 14.8647245686 1.2305 11.675
9 1 15.5751540749 0.0 11.675
10 1 16.9960130873 0.0 11.675
11 1 17.7064425936 1.2305 11.675
12 1 19.127301606 1.2305 11.675
13 1 19.8377311123 0.0 11.675
14 1 21.2585901248 0.0 11.675
15 1 21.969019631 1.2305 11.675
16 1 23.3898786435 1.2305 11.675
17 1 24.1003081497 0.0 11.675
18 1 25.5211671622 0.0 11.675
19 1 26.2315966684 1.2305 11.675
20 1 27.6524556809 1.2305 11.675
21 1 28.3628851871 0.0 11.675
22 1 29.7837441996 0.0 11.675
23 1 30.4941737058 1.2305 11.675
24 1 31.9150327183 1.2305 11.675
25 1 32.6254622246 0.0 11.675
26 1 34.046321237 0.0 11.675
27 1 34.7567507433 1.2305 11.675
28 1 36.1776097558 1.2305 11.675
29 1 36.888039262 0.0 11.675
30 1 38.3088982745 0.0 11.675
31 1 39.0193277807 1.2305 11.675
32 1 40.4401867932 1.2305 11.675
33 1 41.1506162994 0.0 11.675
34 1 42.5714753119 0.0 11.675
35 1 43.2819048181 1.2305 11.675
36 1 44.7027638306 1.2305 11.675
37 1 45.4131933368 0.0 11.675
38 1 46.8340523493 0.0 11.675
39 1 47.5444818556 1.2305 11.675
40 1 48.965340868 1.2305 11.675
41 1 49.6757703743 0.0 11.675
42 1 51.0966293867 0.0 11.675
43 1 51.807058893 1.2305 11.675
44 3 52.7779179055 1.2305 11.975
45 3 7.5 2.461 11.375
46 1 8.4708590125 2.461 11.675
47 1 9.1812885187 3.6915 11.675
48 1 10.6021475312 3.6915 11.675
49 1 11.3125770374 2.461 11.675
50 1 12.7334360499 2.461 11.675
51 1 13.4438655561 3.6915 11.675
52 1 14.8647245686 3.6915 11.675
53 1 15.5751540749 2.461 11.675
54 1 16.9960130873 2.461 11.675
55 1 17.7064425936 3.6915 11.675
56 1 19.127301606 3.6915 11.675
57 1 19.8377311123 2.461 11.675
58 1 21.2585901248 2.461 11.675
59 1 21.969019631 3.6915 11.675
60 1 23.3898786435 3.6915 11.675
61 1 24.1003081497 2.461 11.675
62 1 25.5211671622 2.461 11.675
63 1 26.2315966684 3.6915 11.675
64 1 27.6524556809 3.6915 11.675
65 1 28.3628851871 2.461 11.675
66 1 29.7837441996 2.461 11.675
67 1 30.4941737058 3.6915 11.675
68 1 31.9150327183 3.6915 11.675
69 1 32.6254622246 2.461 11.675
70 1 34.046321237 2.461 11.675
71 1 34.7567507433 3.6915 11.675
72 1 36.1776097558 3.6915 11.675
73 1 36.888039262 2.461 11.675
74 1 38.3088982745 2.461 11.675
75 1 39.0193277807 3.6915 11.675
76 1 40.4401867932 3.6915 11.675
77 1 41.1506162994 2.461 11.675
78 1 42.5714753119 2.461 11.675
79 1 43.2819048181 3.6915 11.675
80 1 44.7027638306 3.6915 11.675
81 1 45.4131933368 2.461 11.675
82 1 46.8340523493 2.461 11.675
83 1 47.5444818556 3.6915 11.675
84 1 48.965340868 3.6915 11.675
85 1 49.6757703743 2.461 11.675
86 1 51.0966293867 2.461 11.675
87 1 51.807058893 3.6915 11.675
88 3 52.7779179055 3.6915 11.975
89 3 7.5 4.922 11.375
90 1 8.4708590125 4.922 11.675
91 1 9.1812885187 6.1525 11.675
92 1 10.6021475312 6.1525 11.675
93 1 11.3125770374 4.922 11.675
94 1 12.7334360499 4.922 11.675
95 1 13.4438655561 6.1525 11.675
96 1 14.8647245686 6.1525 11.675
97 1 15.5751540749 4.922 11.675
98 1 16.9960130873 4.922 11.675
99 1 17.7064425936 6.1525 11.675
100 1 19.127301606 6.1525 11.675
101 1 19.8377311123 4.922 11.675
102 1 21.2585901248 4.922 11.675
103 1 21.969019631 6.1525 11.675
104 1 23.3898786435 6.1525 11.675
105 1 24.1003081497 4.922 11.675
106 1 25.5211671622 4.922 11.675
107 1 26.2315966684 6.1525 11.675
108 1 27.6524556809 6.1525 11.675
109 1 28.3628851871 4.922 11.675
110 1 29.7837441996 4.922 11.675
111 1 30.4941737058 6.1525 11.675
112 1 31.9150327183 6.1525 11.675
113 1 32.6254622246 4.922 11.675
114 1 34.046321237 4.922 11.675
115 1 34.7567507433 6.1525 11.675
116 1 36.1776097558 6.1525 11.675
117 1 36.888039262 4.922 11.675
118 1 38.3088982745 4.922 11.675
119 1 39.0193277807 6.1525 11.675
120 1 40.4401867932 6.1525 11.675
121 1 41.1506162994 4.922 11.675
122 1 42.5714753119 4.922 11.675
123 1 43.2819048181 6.1525 11.675
124 1 44.7027638306 6.1525 11.675
125 1 45.4131933368 4.922 11.675
126 1 46.8340523493 4.922 11.675
127 1 47.5444818556 6.1525 11.675
128 1 48.965340868 6.1525 11.675
129 1 49.6757703743 4.922 11.675
130 1 51.0966293867 4.922 11.675
131 1 51.807058893 6.1525 11.675
132 3 52.7779179055 6.1525 11.975
133 3 7.5 7.383 11.375
134 1 8.4708590125 7.383 11.675
135 1 9.1812885187 8.6135 11.675
136 1 10.6021475312 8.6135 11.675
137 1 11.3125770374 7.383 11.675
138 1 12.7334360499 7.383 11.675
139 1 13.4438655561 8.6135 11.675
140 1 14.8647245686 8.6135 11.675
141 1 15.5751540749 7.383 11.675
142 1 16.9960130873 7.383 11.675
143 1 17.7064425936 8.6135 11.675
144 1 19.127301606 8.6135 11.675
145 1 19.8377311123 7.383 11.675
146 1 21.2585901248 7.383 11.675
147 1 21.969019631 8.6135 11.675
148 1 23.3898786435 8.6135 11.675
149 1 24.1003081497 7.383 11.675
150 1 25.5211671622 7.383 11.675
151 1 26.2315966684 8.6135 11.675
152 1 27.6524556809 8.6135 11.675
153 1 28.3628851871 7.383 11.675
154 1 29.7837441996 7.383 11.675
155 1 30.4941737058 8.6135 11.675
156 1 31.9150327183 8.6135 11.675
157 1 32.6254622246 7.383 11.675
158 1 34.046321237 7.383 11.675
159 1 34.7567507433 8.6135 11.675
160 1 36.1776097558 8.6135 11.675
161 1 36.888039262 7.383 11.675
162 1 38.3088982745 7.383 11.675
163 1 39.0193277807 8.6135 11.675
164 1 40.4401867932 8.6135 11.675
165 1 41.1506162994 7.383 11.675
166 1 42.5714753119 7.383 11.675
167 1 43.2819048181 8.6135 11.675
168 1 44.7027638306 8.6135 11.675
169 1 45.4131933368 7.383 11.675
170 1 46.8340523493 7.383 11.675
171 1 47.5444818556 8.6135 11.675
172 1 48.965340868 8.6135 11.675
173 1 49.6757703743 7.383 11.675
174 1 51.0966293867 7.383 11.675
175 1 51.807058893 8.6135 11.675
176 3 52.7779179055 8.6135 11.975
177 3 7.5 9.844 11.375
178 1 8.4708590125 9.844 11.675
179 1 9.1812885187 11.0745 11.675
180 1 10.6021475312 11.0745 11.675
181 1 11.3125770374 9.844 11.675
182 1 12.7334360499 9.844 11.675
183 1 13.4438655561 11.0745 11.675
184 1 14.8647245686 11.0745 11.675
185 1 15.5751540749 9.844 11.675
186 1 16.9960130873 9.844 11.675
187 1 17.7064425936 11.0745 11.675
188 1 19.127301606 11.0745 11.675
189 1 19.8377311123 9.844 11.675
190 1 21.2585901248 9.844 11.675
191 1 21.969019631 11.0745 11.675
192 1 23.3898786435 11.0745 11.675
193 1 24.1003081497 9.844 11.675
194 1 25.5211671622 9.844 11.675
195 1 26.2315966684 11.0745 11.675
196 1 27.6524556809 11.0745 11.675
197 1 28.3628851871 9.844 11.675
198 1 29.7837441996 9.844 11.675
199 1 30.4941737058 11.0745 11.675
200 1 31.9150327183 11.0745 11.675
201 1 32.6254622246 9.844 11.675
202 1 34.046321237 9.844 11.675
203 1 34.7567507433 11.0745 11.675
204 1 36.1776097558 11.0745 11.675
205 1 36.888039262 9.844 11.675
206 1 38.3088982745 9.844 11.675
207 1 39.0193277807 11.0745 11.675
208 1 40.4401867932 11.0745 11.675
209 1 41.1506162994 9.844 11.675
210 1 42.5714753119 9.844 11.675
211 1 43.2819048181 11.0745 11.675
212 1 44.7027638306 11.0745 11.675
213 1 45.4131933368 9.844 11.675
214 1 46.8340523493 9.844 11.675
215 1 47.5444818556 11.0745 11.675
216 1 48.965340868 11.0745 11.675
217 1 49.6757703743 9.844 11.675
218 1 51.0966293867 9.844 11.675
219 1 51.807058893 11.0745 11.675
220 3 52.7779179055 11.0745 11.975
221 3 7.5 12.305 11.375
222 1 8.4708590125 12.305 11.675
223 1 9.1812885187 13.5355 11.675
224 1 10.6021475312 13.5355 11.675
225 1 11.3125770374 12.305 11.675
226 1 12.7334360499 12.305 11.675
227 1 13.4438655561 13.5355 11.675
228 1 14.8647245686 13.5355 11.675
229 1 15.5751540749 12.305 11.675
230 1 16.9960130873 12.305 11.675
231 1 17.7064425936 13.5355 11.675
232 1 19.127301606 13.5355 11.675
233 1 19.8377311123 12.305 11.675
234 1 21.2585901248 12.305 11.675
235 1 21.969019631 13.5355 11.675
236 1 23.3898786435 13.5355 11.675
237 1 24.1003081497 12.305 11.675
238 1 25.5211671622 12.305 11.675
239 1 26.2315966684 13.5355 11.675
240 1 27.6524556809 13.5355 11.675
241 1 28.3628851871 12.305 11.675
242 1 29.7837441996 12.305 11.675
243 1 30.4941737058 13.5355 11.675
244 1 31.9150327183 13.5355 11.675
245 1 32.6254622246 12.305 11.675
246 1 34.046321237 12.305 11.675
247 1 34.7567507433 13.5355 11.675
248 1 36.1776097558 13.5355 11.675
249 1 36.888039262 12.305 11.675
250 1 38.3088982745 12.305 11.675
251 1 39.0193277807 13.5355 11.675
252 1 40.4401867932 13.5355 11.675
253 1 41.1506162994 12.305 11.675
254 1 42.5714753119 12.305 11.675
255 1 43.2819048181 13.5355 11.675
256 1 44.7027638306 13.5355 11.675
257 1 45.4131933368 12.305 11.675
258 1 46.8340523493 12.305 11.675
259 1 47.5444818556 13.5355 11.675
260 1 48.965340868 13.5355 11.675
261 1 49.6757703743 12.305 11.675
262 1 51.0966293867 12.305 11.675
263 1 51.807058893 13.5355 11.675
264 3 52.7779179055 13.5355 11.975
265 3 7.5 14.766 11.375
266 1 8.4708590125 14.766 11.675
267 1 9.1812885187 15.9965 11.675
268 1 10.6021475312 15.9965 11.675
269 1 11.3125770374 14.766 11.675
270 1 12.7334360499 14.766 11.675
271 1 13.4438655561 15.9965 11.675
272 1 14.8647245686 15.9965 11.675
273 1 15.5751540749 14.766 11.675
274 1 16.9960130873 14.766 11.675
275 1 17.7064425936 15.9965 11.675
276 1 19.127301606 15.9965 11.675
277 1 19.8377311123 14.766 11.675
278 1 21.2585901248 14.766 11.675
279 1 21.969019631 15.9965 11.675
280 1 23.3898786435 15.9965 11.675
281 1 24.1003081497 14.766 11.675
282 1 25.5211671622 14.766 11.675
283 1 26.2315966684 15.9965 11.675
284 1 27.6524556809 15.9965 11.675
285 1 28.3628851871 14.766 11.675
286 1 29.7837441996 14.766 11.675
287 1 30.4941737058 15.9965 11.675
288 1 31.9150327183 15.9965 11.675
289 1 32.6254622246 14.766 11.675
290 1 34.046321237 14.766 11.675
291 1 34.7567507433 15.9965 11.675
292 1 36.1776097558 15.9965 11.675
293 1 36.888039262 14.766 11.675
294 1 38.3088982745 14.766 11.675
295 1 39.0193277807 15.9965 11.675
296 1 40.4401867932 15.9965 11.675
297 1 41.1506162994 14.766 11.675
298 1 42.5714753119 14.766 11.675
299 1 43.2819048181 15.9965 11.675
300 1 44.7027638306 15.9965 11.675
301 1 45.4131933368 14.766 11.675
302 1 46.8340523493 14.766 11.675
303 1 47.5444818556 15.9965 11.675
304 1 48.965340868 15.9965 11.675
305 1 49.6757703743 14.766 11.675
306 1 51.0966293867 14.766 11.675
307 1 51.807058893 15.9965 11.675
308 3 52.7779179055 15.9965 11.975
309 3 7.5 17.227 11.375
310 1 8.4708590125 17.227 11.675
311 1 9.1812885187 18.4575 11.675
312 1 10.6021475312 18.4575 11.675
313 1 11.3125770374 17.227 11.675
314 1 12.7334360499 17.227 11.675
315 1 13.4438655561 18.4575 11.675
316 1 14.8647245686 18.4575 11.675
317 1 15.5751540749 17.227 11.675
318 1 16.9960130873 17.227 11.675
319 1 17.7064425936 18.4575 11.675
320 1 19.127301606 18.4575 11.675
321 1 19.8377311123 17.227 11.675
322 1 21.2585901248 17.227 11.675
323 1 21.969019631 18.4575 11.675
324 1 23.3898786435 18.4575 11.675
325 1 24.1003081497 17.227 11.675
326 1 25.5211671622 17.227 11.675
327 1 26.2315966684 18.4575 11.675
328 1 27.6524556809 18.4575 11.675
329 1 28.3628851871 17.227 11.675
330 1 29.7837441996 17.227 11.675
331 1 30.4941737058 18.4575 11.675
332 1 31.9150327183 18.4575 11.675
333 1 32.6254622246 17.227 11.675
334 1 34.046321237 17.227 11.675
335 1 34.7567507433 18.4575 11.675
336 1 36.1776097558 18.4575 11.675
337 1 36.888039262 17.227 11.675
338 1 38.3088982745 17.227 11.675
339 1 39.0193277807 18.4575 11.675
340 1 40.4401867932 18.4575 11.675
341 1 41.1506162994 17.227 11.675
342 1 42.5714753119 17.227 11.675
343 1 43.2819048181 18.4575 11.675
344 1 44.7027638306 18.4575 11.675
345 1 45.4131933368 17.227 11.675
346 1 46.8340523493 17.227 11.675
347 1 47.5444818556 18.4575 11.675
348 1 48.965340868 18.4575 11.675
349 1 49.6757703743 17.227 11.675
350 1 51.0966293867 17.227 11.675
351 1 51.807058893 18.4575 11.675
352 3 52.7779179055 18.4575 11.975
353 3 7.5 19.688 11.375
354 1 8.4708590125 19.688 11.675
355 1 9.1812885187 20.9185 11.675
356 1 10.6021475312 20.9185 11.675
357 1 11.3125770374 19.688 11.675
358 1 12.7334360499 19.688 11.675
359 1 13.4438655561 20.9185 11.675
360 1 14.8647245686 20.9185 11.675
361 1 15.5751540749 19.688 11.675
362 1 16.9960130873 19.688 11.675
363 1 17.7064425936 20.9185 11.675
364 1 19.127301606 20.9185 11.675
365 1 19.8377311123 19.688 11.675
366 1 21.2585901248 19.688 11.675
367 1 21.969019631 20.9185 11.675
368 1 23.3898786435 20.9185 11.675
369 1 24.1003081497 19.688 11.675
370 1 25.5211671622 19.688 11.675
371 1 26.2315966684 20.9185 11.675
372 1 27.6524556809 20.9185 11.675
373 1 28.3628851871 19.688 11.675
374 1 29.7837441996 19.688 11.675
375 1 30.4941737058 20.9185 11.675
376 1 31.9150327183 20.9185 11.675
377 1 32.6254622246 19.688 11.675
378 1 34.046321237 19.688 11.675
379 1 34.7567507433 20.9185 11.675
380 1 36.1776097558 20.9185 11.675
381 1 36.888039262 19.688 11.675
382 1 38.3088982745 19.688 11.675
383 1 39.0193277807 20.9185 11.675
384 1 40.4401867932 20.9185 11.675
385 1 41.1506162994 19.688 11.675
386 1 42.5714753119 19.688 11.675
387 1 43.2819048181 20.9185 11.675
388 1 44.7027638306 20.9185 11.675
389 1 45.4131933368 19.688 11.675
390 1 46.8340523493 19.688 11.675
391 1 47.5444818556 20.9185 11.675
392 1 48.965340868 20.9185 11.675
393 1 49.6757703743 19.688 11.675
394 1 51.0966293867 19.688 11.675
395 1 51.807058893 20.9185 11.675
396 3 52.7779179055 20.9185 11.975
397 3 7.5 22.149 11.375
398 1 8.4708590125 22.149 11.675
399 1 9.1812885187 23.3795 11.675
400 1 10.6021475312 23.3795 11.675
401 1 11.3125770374 22.149 11.675
402 1 12.7334360499 22.149 11.675
403 1 13.4438655561 23.3795 11.675
404 1 14.8647245686 23.3795 11.675
405 1 15.5751540749 22.149 11.675
406 1 16.9960130873 22.149 11.675
407 1 17.7064425936 23.3795 11.675
408 1 19.127301606 23.3795 11.675
409 1 19.8377311123 22.149 11.675
410 1 21.2585901248 22.149 11.675
411 1 21.969019631 23.3795 11.675
412 1 23.3898786435 23.3795 11.675
413 1 24.1003081497 22.149 11.675
414 1 25.5211671622 22.149 11.675
415 1 26.2315966684 23.3795 11.675
416 1 27.6524556809 23.3795 11.675
417 1 28.3628851871 22.149 11.675
418 1 29.7837441996 22.149 11.675
419 1 30.4941737058 23.3795 11.675
420 1 31.9150327183 23.3795 11.675
421 1 32.6254622246 22.149 11.675
422 1 34.046321237 22.149 11.675
423 1 34.7567507433 23.3795 11.675
424 1 36.1776097558 23.3795 11.675
425 1 36.888039262 22.149 11.675
426 1 38.3088982745 22.149 11.675
427 1 39.0193277807 23.3795 11.675
428 1 40.4401867932 23.3795 11.675
429 1 41.1506162994 22.149 11.675
430 1 42.5714753119 22.149 11.675
431 1 43.2819048181 23.3795 11.675
432 1 44.7027638306 23.3795 11.675
433 1 45.4131933368 22.149 11.675
434 1 46.8340523493 22.149 11.675
435 1 47.5444818556 23.3795 11.675
436 1 48.965340868 23.3795 11.675
437 1 49.6757703743 22.149 11.675
438 1 51.0966293867 22.149 11.675
439 1 51.807058893 23.3795 11.675
440 3 52.7779179055 23.3795 11.975
441 3 7.5 24.61 11.375
442 1 8.4708590125 24.61 11.675
443 1 9.1812885187 25.8405 11.675
444 1 10.6021475312 25.8405 11.675
445 1 11.3125770374 24.61 11.675
446 1 12.7334360499 24.61 11.675
447 1 13.4438655561 25.8405 11.675
448 1 14.8647245686 25.8405 11.675
449 1 15.5751540749 24.61 11.675
450 1 16.9960130873 24.61 11.675
451 1 17.7064425936 25.8405 11.675
452 1 19.127301606 25.8405 11.675
453 1 19.8377311123 24.61 11.675
454 1 21.2585901248 24.61 11.675
455 1 21.969019631 25.8405 11.675
456 1 23.3898786435 25.8405 11.675
457 1 24.1003081497 24.61 11.675
458 1 25.5211671622 24.61 11.675
459 1 26.2315966684 25.8405 11.675
460 1 27.6524556809 25.8405 11.675
461 1 28.3628851871 24.61 11.675
462 1 29.7837441996 24.61 11.675
463 1 30.4941737058 25.8405 11.675
464 1 31.9150327183 25.8405 11.675
465 1 32.6254622246 24.61 11.675
466 1 34.046321237 24.61 11.675
467 1 34.7567507433 25.8405 11.675
468 1 36.1776097558 25.8405 11.675
469 1 36.888039262 24.61 11.675
470 1 38.3088982745 24.61 11.675
471 1 39.0193277807 25.8405 11.675
472 1 40.4401867932 25.8405 11.675
473 1 41.1506162994 24.61 11.675
474 1 42.5714753119 24.61 11.675
475 1 43.2819048181 25.8405 11.675
476 1 44.7027638306 25.8405 11.675
477 1 45.4131933368 24.61 11.675
478 1 46.8340523493 24.61 11.675
479 1 47.5444818556 25.8405 11.675
480 1 48.965340868 25.8405 11.675
481 1 49.6757703743 24.61 11.675
482 1 51.0966293867 24.61 11.675
483 1 51.807058893 25.8405 11.675
484 3 52.7779179055 25.8405 11.975
485 3 7.5 27.071 11.375
486 1 8.4708590125 27.071 11.675
487 1 9.1812885187 28.3015 11.675
488 1 10.6021475312 28.3015 11.675
489 1 11.3125770374 27.071 11.675
490 1 12.7334360499 27.071 11.675
491 1 13.4438655561 28.3015 11.675
492 1 14.8647245686 28.3015 11.675
493 1 15.5751540749 27.071 11.675
494 1 16.9960130873 27.071 11.675
495 1 17.7064425936 28.3015 11.675
496 1 19.127301606 28.3015 11.675
497 1 19.8377311123 27.071 11.675
498 1 21.2585901248 27.071 11.675
499 1 21.969019631 28.3015 11.675
500 1 23.3898786435 28.3015 11.675
501 1 24.1003081497 27.071 11.675
502 1 25.5211671622 27.071 11.675
503 1 26.2315966684 28.3015 11.675
504 1 27.6524556809 28.3015 11.675
505 1 28.3628851871 27.071 11.675
506 1 29.7837441996 27.071 11.675
507 1 30.4941737058 28.3015 11.675
508 1 31.9150327183 28.3015 11.675
509 1 32.6254622246 27.071 11.675
510 1 34.046321237 27.071 11.675
511 1 34.7567507433 28.3015 11.675
512 1 36.1776097558 28.3015 11.675
513 1 36.888039262 27.071 11.675
514 1 38.3088982745 27.071 11.675
515 1 39.0193277807 28.3015 11.675
516 1 40.4401867932 28.3015 11.675
517 1 41.1506162994 27.071 11.675
518 1 42.5714753119 27.071 11.675
519 1 43.2819048181 28.3015 11.675
520 1 44.7027638306 28.3015 11.675
521 1 45.4131933368 27.071 11.675
522 1 46.8340523493 27.071 11.675
523 1 47.5444818556 28.3015 11.675
524 1 48.965340868 28.3015 11.675
525 1 49.6757703743 27.071 11.675
526 1 51.0966293867 27.071 11.675
527 1 51.807058893 28.3015 11.675
528 3 52.7779179055 28.3015 11.975
529 3 7.5 29.532 11.375
530 1 8.4708590125 29.532 11.675
531 1 9.1812885187 30.7625 11.675
532 1 10.6021475312 30.7625 11.675
533 1 11.3125770374 29.532 11.675
534 1 12.7334360499 29.532 11.675
535 1 13.4438655561 30.7625 11.675
536 1 14.8647245686 30.7625 11.675
537 1 15.5751540749 29.532 11.675
538 1 16.9960130873 29.532 11.675
539 1 17.7064425936 30.7625 11.675
540 1 19.127301606 30.7625 11.675
541 1 19.8377311123 29.532 11.675
542 1 21.2585901248 29.532 11.675
543 1 21.969019631 30.7625 11.675
544 1 23.3898786435 30.7625 11.675
545 1 24.1003081497 29.532 11.675
546 1 25.5211671622 29.532 11.675
547 1 26.2315966684 30.7625 11.675
548 1 27.6524556809 30.7625 11.675
549 1 28.3628851871 29.532 11.675
550 1 29.7837441996 29.532 11.675
551 1 30.4941737058 30.7625 11.675
552 1 31.9150327183 30.7625 11.675
553 1 32.6254622246 29.532 11.675
554 1 34.046321237 29.532 11.675
555 1 34.7567507433 30.7625 11.675
556 1 36.1776097558 30.7625 11.675
557 1 36.888039262 29.532 11.675
558 1 38.3088982745 29.532 11.675
559 1 39.0193277807 30.7625 11.675
560 1 40.4401867932 30.7625 11.675
561 1 41.1506162994 29.532 11.675
562 1 42.5714753119 29.532 11.675
563 1 43.2819048181 30.7625 11.675
564 1 44.7027638306 30.7625 11.675
565 1 45.4131933368 29.532 11.675
566 1 46.8340523493 29.532 11.675
567 1 47.5444818556 30.7625 11.675
568 1 48.965340868 30.7625 11.675
569 1 49.6757703743 29.532 11.675
570 1 51.0966293867 29.532 11.675
571 1 51.807058893 30.7625 11.675
572 3 52.7779179055 30.7625 11.975
573 3 7.5 31.993 11.375
574 1 8.4708590125 31.993 11.675
575 1 9.1812885187 33.2235 11.675
576 1 10.6021475312 33.2235 11.675
577 1 11.3125770374 31.993 11.675
578 1 12.7334360499 31.993 11.675
579 1 13.4438655561 33.2235 11.675
580 1 14.8647245686 33.2235 11.675
581 1 15.5751540749 31.993 11.675
582 1 16.9960130873 31.993 11.675
583 1 17.7064425936 33.2235 11.675
584 1 19.127301606 33.2235 11.675
585 1 19.8377311123 31.993 11.675
586 1 21.2585901248 31.993 11.675
587 1 21.969019631 33.2235 11.675
588 1 23.3898786435 33.2235 11.675
589 1 24.1003081497 31.993 11.675
590 1 25.5211671622 31.993 11.675
591 1 26.2315966684 33.2235 11.675
592 1 27.6524556809 33.2235 11.675
593 1 28.3628851871 31.993 11.675
594 1 29.7837441996 31.993 11.675
595 1 30.4941737058 33.2235 11.675
596 1 31.9150327183 33.2235 11.675
597 1 32.6254622246 31.993 11.675
598 1 34.046321237 31.993 11.675
599 1 34.7567507433 33.2235 11.675
600 1 36.1776097558 33.2235 11.675
601 1 36.888039262 31.993 11.675
602 1 38.3088982745 31.993 11.675
603 1 39.0193277807 33.2235 11.675
604 1 40.4401867932 33.2235 11.675
605 1 41.1506162994 31.993 11.675
606 1 42.5714753119 31.993 11.675
607 1 43.2819048181 33.2235 11.675
608 1 44.7027638306 33.2235 11.675
609 1 45.4131933368 31.993 11.675
610 1 46.8340523493 31.993 11.675
611 1 47.5444818556 33.2235 11.675
612 1 48.965340868 33.2235 11.675
613 1 49.6757703743 31.993 11.675
614 1 51.0966293867 31.993 11.675
615 1 51.807058893 33.2235 11.675
616 3 52.7779179055 33.2235 11.975
617 3 7.5 34.454 11.375
618 1 8.4708590125 34.454 11.675
619 1 9.1812885187 35.6845 11.675
620 1 10.6021475312 35.6845 11.675
621 1 11.3125770374 34.454 11.675
622 1 12.7334360499 34.454 11.675
623 1 13.4438655561 35.6845 11.675
624 1 14.8647245686 35.6845 11.675
625 1 15.5751540749 34.454 11.675
626 1 16.9960130873 34.454 11.675
627 1 17.7064425936 35.6845 11.675
628 1 19.127301606 35.6845 11.675
629 1 19.8377311123 34.454 11.675
630 1 21.2585901248 34.454 11.675
631 1 21.969019631 35.6845 11.675
632 1 23.3898786435 35.6845 11.675
633 1 24.1003081497 34.454 11.675
634 1 25.5211671622 34.454 11.675
635 1 26.2315966684 35.6845 11.675
636 1 27.6524556809 35.6845 11.675
637 1 28.3628851871 34.454 11.675
638 1 29.7837441996 34.454 11.675
639 1 30.4941737058 35.6845 11.675
640 1 31.9150327183 35.6845 11.675
641 1 32.6254622246 34.454 11.675
642 1 34.046321237 34.454 11.675
643 1 34.7567507433 35.6845 11.675
644 1 36.1776097558 35.6845 11.675
645 1 36.888039262 34.454 11.675
646 1 38.3088982745 34.454 11.675
647 1 39.0193277807 35.6845 11.675
648 1 40.4401867932 35.6845 11.675
649 1 41.1506162994 34.454 11.675
650 1 42.5714753119 34.454 11.675
651 1 43.2819048181 35.6845 11.675
652 1 44.7027638306 35.6845 11.675
653 1 45.4131933368 34.454 11.675
654 1 46.8340523493 34.454 11.675
655 1 47.5444818556 35.6845 11.675
656 1 48.965340868 35.6845 11.675
657 1 49.6757703743 34.454 11.675
658 1 51.0966293867 34.454 11.675
659 1 51.807058893 35.6845 11.675
660 3 52.7779179055 35.6845 11.975
661 3 7.5 36.915 11.375
662 1 8.4708590125 36.915 11.675
663 1 9.1812885187 38.1455 11.675
664 1 10.6021475312 38.1455 11.675
665 1 11.3125770374 36.915 11.675
666 1 12.7334360499 36.915 11.675
667 1 13.4438655561 38.1455 11.675
668 1 14.8647245686 38.1455 11.675
669 1 15.5751540749 36.915 11.675
670 1 16.9960130873 36.915 11.675
671 1 17.7064425936 38.1455 11.675
672 1 19.127301606 38.1455 11.675
673 1 19.8377311123 36.915 11.675
674 1 21.2585901248 36.915 11.675
675 1 21.969019631 38.1455 11.675
676 1 23.3898786435 38.1455 11.675
677 1 24.1003081497 36.915 11.675
678 1 25.5211671622 36.915 11.675
679 1 26.2315966684 38.1455 11.675
680 1 27.6524556809 38.1455 11.675
681 1 28.3628851871 36.915 11.675
682 1 29.7837441996 36.915 11.675
683 1 30.4941737058 38.1455 11.675
684 1 31.9150327183 38.1455 11.675
685 1 32.6254622246 36.915 11.675
686 1 34.046321237 36.915 11.675
687 1 34.7567507433 38.1455 11.675
688 1 36.1776097558 38.1455 11.675
689 1 36.888039262 36.915 11.675
690 1 38.3088982745 36.915 11.675
691 1 39.0193277807 38.1455 11.675
692 1 40.4401867932 38.1455 11.675
693 1 41.1506162994 36.915 11.675
694 1 42.5714753119 36.915 11.675
695 1 43.2819048181 38.1455 11.675
696 1 44.7027638306 38.1455 11.675
697 1 45.4131933368 36.915 11.675
698 1 46.8340523493 36.915 11.675
699 1 47.5444818556 38.1455 11.675
700 1 48.965340868 38.1455 11.675
701 1 49.6757703743 36.915 11.675
702 1 51.0966293867 36.915 11.675
703 1 51.807058893 38.1455 11.675
704 3 52.7779179055 38.1455 11.975
705 3 7.5 39.376 11.375
706 1 8.4708590125 39.376 11.675
707 1 9.1812885187 40.6065 11.675
708 1 10.6021475312 40.6065 11.675
709 1 11.3125770374 39.376 11.675
710 1 12.7334360499 39.376 11.675
711 1 13.4438655561 40.6065 11.675
712 1 14.8647245686 40.6065 11.675
713 1 15.5751540749 39.376 11.675
714 1 16.9960130873 39.376 11.675
715 1 17.7064425936 40.6065 11.675
716 1 19.127301606 40.6065 11.675
717 1 19.8377311123 39.376 11.675
718 1 21.2585901248 39.376 11.675
719 1 21.969019631 40.6065 11.675
720 1 23.3898786435 40.6065 11.675
721 1 24.1003081497 39.376 11.675
722 1 25.5211671622 39.376 11.675
723 1 26.2315966684 40.6065 11.675
724 1 27.6524556809 40.6065 11.675
725 1 28.3628851871 39.376 11.675
726 1 29.7837441996 39.376 11.675
727 1 30.4941737058 40.6065 11.675
728 1 31.9150327183 40.6065 11.675
729 1 32.6254622246 39.376 11.675
730 1 34.046321237 39.376 11.675
731 1 34.7567507433 40.6065 11.675
732 1 36.1776097558 40.6065 11.675
733 1 36.888039262 39.376 11.675
734 1 38.3088982745 39.376 11.675
735 1 39.0193277807 40.6065 11.675
736 1 40.4401867932 40.6065 11.675
737 1 41.1506162994 39.376 11.675
738 1 42.5714753119 39.376 11.675
739 1 43.2819048181 40.6065 11.675
740 1 44.7027638306 40.6065 11.675
741 1 45.4131933368 39.376 11.675
742 1 46.8340523493 39.376 11.675
743 1 47.5444818556 40.6065 11.675
744 1 48.965340868 40.6065 11.675
745 1 49.6757703743 39.376 11.675
746 1 51.0966293867 39.376 11.675
747 1 51.807058893 40.6065 11.675
748 3 52.7779179055 40.6065 11.975
749 3 7.5 41.837 11.375
750 1 8.4708590125 41.837 11.675
751 1 9.1812885187 43.0675 11.675
752 1 10.6021475312 43.0675 11.675
753 1 11.3125770374 41.837 11.675
754 1 12.7334360499 41.837 11.675
755 1 13.4438655561 43.0675 11.675
756 1 14.8647245686 43.0675 11.675
757 1 15.5751540749 41.837 11.675
758 1 16.9960130873 41.837 11.675
759 1 17.7064425936 43.0675 11.675
760 1 19.127301606 43.0675 11.675
761 1 19.8377311123 41.837 11.675
762 1 21.2585901248 41.837 11.675
763 1 21.969019631 43.0675 11.675
764 1 23.3898786435 43.0675 11.675
765 1 24.1003081497 41.837 11.675
766 1 25.5211671622 41.837 11.675
767 1 26.2315966684 43.0675 11.675
768 1 27.6524556809 43.0675 11.675
769 1 28.3628851871 41.837 11.675
770 1 29.7837441996 41.837 11.675
771 1 30.4941737058 43.0675 11.675
772 1 31.9150327183 43.0675 11.675
773 1 32.6254622246 41.837 11.675
774 1 34.046321237 41.837 11.675
775 1 34.7567507433 43.0675 11.675
776 1 36.1776097558 43.0675 11.675
777 1 36.888039262 41.837 11.675
778 1 38.3088982745 41.837 11.675
779 1 39.0193277807 43.0675 11.675
780 1 40.4401867932 43.0675 11.675
781 1 41.1506162994 41.837 11.675
782 1 42.5714753119 41.837 11.675
783 1 43.2819048181 43.0675 11.675
784 1 44.7027638306 43.0675 11.675
785 1 45.4131933368 41.837 11.675
786 1 46.8340523493 41.837 11.675
787 1 47.5444818556 43.0675 11.675
788 1 48.965340868 43.0675 11.675
789 1 49.6757703743 41.837 11.675
790 1 51.0966293867 41.837 11.675
791 1 51.807058893 43.0675 11.675
792 3 52.7779179055 43.0675 11.975
793 3 7.5 44.298 11.375
794 1 8.4708590125 44.298 11.675
795 1 9.1812885187 45.5285 11.675
796 1 10.6021475312 45.5285 11.675
797 1 11.3125770374 44.298 11.675
798 1 12.7334360499 44.298 11.675
799 1 13.4438655561 45.5285 11.675
800 1 14.8647245686 45.5285 11.675
801 1 15.5751540749 44.298 11.675
802 1 16.9960130873 44.298 11.675
803 1 17.7064425936 45.5285 11.675
804 1 19.127301606 45.5285 11.675
805 1 19.8377311123 44.298 11.675
806 1 21.2585901248 44.298 11.675
807 1 21.969019631 45.5285 11.675
808 1 23.3898786435 45.5285 11.675
809 1 24.1003081497 44.298 11.675
810 1 25.5211671622 44.298 11.675
811 1 26.2315966684 45.5285 11.675
812 1 27.6524556809 45.5285 11.675
813 1 28.3628851871 44.298 11.675
814 1 29.7837441996 44.298 11.675
815 1 30.4941737058 45.5285 11.675
816 1 31.9150327183 45.5285 11.675
817 1 32.6254622246 44.298 11.675
818 1 34.046321237 44.298 11.675
819 1 34.7567507433 45.5285 11.675
820 1 36.1776097558 45.5285 11.675
821 1 36.888039262 44.298 11.675
822 1 38.3088982745 44.298 11.675
823 1 39.0193277807 45.5285 11.675
824 1 40.4401867932 45.5285 11.675
825 1 41.1506162994 44.298 11.675
826 1 42.5714753119 44.298 11.675
827 1 43.2819048181 45.5285 11.675
828 1 44.7027638306 45.5285 11.675
829 1 45.4131933368 44.298 11.675
830 1 46.8340523493 44.298 11.675
831 1 47.5444818556 45.5285 11.675
832 1 48.965340868 45.5285 11.675
833 1 49.6757703743 44.298 11.675
834 1 51.0966293867 44.298 11.675
835 1 51.807058893 45.5285 11.675
836 3 52.7779179055 45.5285 11.975
837 3 7.5 46.759 11.375
838 1 8.4708590125 46.759 11.675
839 1 9.1812885187 47.9895 11.675
840 1 10.6021475312 47.9895 11.675
841 1 11.3125770374 46.759 11.675
842 1 12.7334360499 46.759 11.675
843 1 13.4438655561 47.9895 11.675
844 1 14.8647245686 47.9895 11.675
845 1 15.5751540749 46.759 11.675
846 1 16.9960130873 46.759 11.675
847 1 17.7064425936 47.9895 11.675
848 1 19.127301606 47.9895 11.675
849 1 19.8377311123 46.759 11.675
850 1 21.2585901248 46.759 11.675
851 1 21.969019631 47.9895 11.675
852 1 23.3898786435 47.9895 11.675
853 1 24.1003081497 46.759 11.675
854 1 25.5211671622 46.759 11.675
855 1 26.2315966684 47.9895 11.675
856 1 27.6524556809 47.9895 11.675
857 1 28.3628851871 46.759 11.675
858 1 29.7837441996 46.759 11.675
859 1 30.4941737058 47.9895 11.675
860 1 31.9150327183 47.9895 11.675
861 1 32.6254622246 46.759 11.675
862 1 34.046321237 46.759 11.675
863 1 34.7567507433 47.9895 11.675
864 1 36.1776097558 47.9895 11.675
865 1 36.888039262 46.759 11.675
866 1 38.3088982745 46.759 11.675
867 1 39.0193277807 47.9895 11.675
868 1 40.4401867932 47.9895 11.675
869 1 41.1506162994 46.759 11.675
870 1 42.5714753119 46.759 11.675
871 1 43.2819048181 47.9895 11.675
872 1 44.7027638306 47.9895 11.675
873 1 45.4131933368 46.759 11.675
874 1 46.8340523493 46.759 11.675
875 1 47.5444818556 47.9895 11.675
876 1 48.965340868 47.9895 11.675
877 1 49.6757703743 46.759 11.675
878 1 51.0966293867 46.759 11.675
879 1 51.807058893 47.9895 11.675
880 3 52.7779179055 47.9895 11.975
881 3 7.5 49.22 11.375
882 1 8.4708590125 49.22 11.675
883 1 9.1812885187 50.4505 11.675
884 1 10.6021475312 50.4505 11.675
885 1 11.3125770374 49.22 11.675
886 1 12.7334360499 49.22 11.675
887 1 13.4438655561 50.4505 11.675
888 1 14.8647245686 50.4505 11.675
889 1 15.5751540749 49.22 11.675
890 1 16.9960130873 49.22 11.675
891 1 17.7064425936 50.4505 11.675
892 1 19.127301606 50.4505 11.675
893 1 19.8377311123 49.22 11.675
894 1 21.2585901248 49.22 11.675
895 1 21.969019631 50.4505 11.675
896 1 23.3898786435 50.4505 11.675
897 1 24.1003081497 49.22 11.675
898 1 25.5211671622 49.22 11.675
899 1 26.2315966684 50.4505 11.675
900 1 27.6524556809 50.4505 11.675
901 1 28.3628851871 49.22 11.675
902 1 29.7837441996 49.22 11.675
903 1 30.4941737058 50.4505 11.675
904 1 31.9150327183 50.4505 11.675
905 1 32.6254622246 49.22 11.675
906 1 34.046321237 49.22 11.675
907 1 34.7567507433 50.4505 11.675
908 1 36.1776097558 50.4505 11.675
909 1 36.888039262 49.22 11.675
910 1 38.3088982745 49.22 11.675
911 1 39.0193277807 50.4505 11.675
912 1 40.4401867932 50.4505 11.675
913 1 41.1506162994 49.22 11.675
914 1 42.5714753119 49.22 11.675
915 1 43.2819048181 50.4505 11.675
916 1 44.7027638306 50.4505 11.675
917 1 45.4131933368 49.22 11.675
918 1 46.8340523493 49.22 11.675
919 1 47.5444818556 50.4505 11.675
920 1 48.965340868 50.4505 11.675
921 1 49.6757703743 49.22 11.675
922 1 51.0966293867 49.22 11.675
923 1 51.807058893 50.4505 11.675
924 3 52.7779179055 50.4505 11.975
925 3 7.5 51.681 11.375
926 1 8.4708590125 51.681 11.675
927 1 9.1812885187 52.9115 11.675
928 1 10.6021475312 52.9115 11.675
929 1 11.3125770374 51.681 11.675
930 1 12.7334360499 51.681 11.675
931 1 13.4438655561 52.9115 11.675
932 1 14.8647245686 52.9115 11.675
933 1 15.5751540749 51.681 11.675
934 1 16.9960130873 51.681 11.675
935 1 17.7064425936 52.9115 11.675
936 1 19.127301606 52.9115 11.675
937 1 19.8377311123 51.681 11.675
938 1 21.2585901248 51.681 11.675
939 1 21.969019631 52.9115 11.675
940 1 23.3898786435 52.9115 11.675
941 1 24.1003081497 51.681 11.675
942 1 25.5211671622 51.681 11.675
943 1 26.2315966684 52.9115 11.675
944 1 27.6524556809 52.9115 11.675
945 1 28.3628851871 51.681 11.675
946 1 29.7837441996 51.681 11.675
947 1 30.4941737058 52.9115 11.675
948 1 31.9150327183 52.9115 11.675
949 1 32.6254622246 51.681 11.675
950 1 34.046321237 51.681 11.675
951 1 34.7567507433 52.9115 11.675
952 1 36.1776097558 52.9115 11.675
953 1 36.888039262 51.681 11.675
954 1 38.3088982745 51.681 11.675
955 1 39.0193277807 52.9115 11.675
956 1 40.4401867932 52.9115 11.675
957 1 41.1506162994 51.681 11.675
958 1 42.5714753119 51.681 11.675
959 1 43.2819048181 52.9115 11.675
960 1 44.7027638306 52.9115 11.675
961 1 45.4131933368 51.681 11.675
962 1 46.8340523493 51.681 11.675
963 1 47.5444818556 52.9115 11.675
964 1 48.965340868 52.9115 11.675
965 1 49.6757703743 51.681 11.675
966 1 51.0966293867 51.681 11.675
967 1 51.807058893 52.9115 11.675
968 3 52.7779179055 52.9115 11.975
969 2 47.5444818556 43.0675 13.185
970 3 46.5644818556 43.0675 13.185
971 2 25.5211671622 29.532 10.165
972 3 25.0311671622 30.3807048957 10.165
973 2 36.1776097558 11.0745 10.165
974 3 35.6876097558 11.9232048957 10.165
975 2 13.4438655561 6.1525 10.165
976 3 13.9338655561 5.3037951043 10.165
977 2 40.4401867932 33.2235 13.185
978 3 41.4201867932 33.2235 13.185
979 2 43.2819048181 33.2235 10.165
980 3 42.3019048181 33.2235 10.165
981 2 29.7837441996 0.0 10.165
982 3 29.7705871701 -0.9799116759 10.165
983 2 31.9150327183 45.5285 10.165
984 3 31.4250327183 46.3772048957 10.165
985 2 15.5751540749 2.461 10.165
986 3 16.0651540749 1.6122951043 10.165
987 2 12.7334360499 24.61 10.165
988 3 12.2434360499 23.7612951043 10.165
989 2 10.6021475312 52.9115 13.185
990 3 11.5821475312 52.9115 13.185
991 2 14.8647245686 1.2305 13.185
992 3 14.3747245686 0.3817951043 13.185
993 2 24.1003081497 36.915 13.185
994 3 24.5903081497 36.0662951043 13.185
995 2 38.3088982745 24.61 13.185
996 3 37.8188982745 23.7612951043 13.185
997 2 39.0193277807 15.9965 10.165
998 3 39.5093277807 15.1477951043 10.165
999 2 21.2585901248 9.844 10.165
1000 3 20.7685901248 8.9952951043 10.165
1001 2 12.7334360499 49.22 10.165
1002 3 12.2434360499 50.0687048957 10.165
1003 2 16.9960130873 39.376 13.185
1004 3 16.5060130873 40.2247048957 13.185
1005 2 44.7027638306 52.9115 10.165
1006 3 44.6896068011 53.8914116759 10.165
1007 2 21.969019631 35.6845 10.165
1008 3 22.459019631 34.8357951043 10.165
1009 2 29.7837441996 51.681 13.185
1010 3 30.7637441996 51.681 13.185
1011 2 21.969019631 18.4575 13.185
1012 3 22.459019631 19.3062048957 13.185
1013 2 15.5751540749 39.376 10.165
1014 3 14.5951540749 39.376 10.165
1015 2 19.8377311123 14.766 10.165
1016 3 18.8577311123 14.766 10.165
1017 2 16.9960130873 34.454 13.185
1018 3 16.5060130873 35.3027048957 13.185
1019 2 34.046321237 46.759 13.185
1020 3 33.556321237 47.6077048957 13.185
1021 2 13.4438655561 11.0745 13.185
1022 3 12.4638655561 11.0745 13.185
1023 2 10.6021475312 40.6065 13.185
1024 3 11.5821475312 40.6065 13.185
1025 2 26.2315966684 18.4575 10.165
1026 3 26.7215966684 19.3062048957 10.165
1027 2 34.7567507433 20.9185 13.185
1028 3 35.2467507433 21.7672048957 13.185
1029 2 45.4131933368 36.915 13.185
1030 3 45.9031933368 36.0662951043 13.185
1031 2 47.5444818556 20.9185 13.185
1032 3 48.0344818556 21.7672048957 13.185
1033 2 45.4131933368 24.61 13.185
1034 3 44.4331933368 24.61 13.185
1035 2 10.6021475312 43.0675 10.165
1036 3 11.5821475312 43.0675 10.165
1037 2 24.1003081497 2.461 13.185
1038 3 24.5903081497 3.3097048957 13.185
1039 2 46.8340523493 41.837 10.165
1040 3 46.3440523493 40.9882951043 10.165
1041 2 16.9960130873 29.532 10.165
1042 3 17.9760130873 29.532 10.165
1043 2 26.2315966684 45.5285 13.185
1044 3 25.2515966684 45.5285 13.185
1045 2 45.4131933368 7.383 13.185
1046 3 44.4331933368 7.383 13.185
1047 2 28.3628851871 2.461 13.185
1048 3 28.8528851871 3.3097048957 13.185
1049 2 42.5714753119 9.844 10.165
1050 3 42.0814753119 10.6927048957 10.165
1051 2 36.888039262 36.915 13.185
1052 3 37.378039262 36.0662951043 13.185
1053 2 45.4131933368 14.766 13.185
1054 3 44.4331933368 14.766 13.185
1055 2 44.7027638306 6.1525 10.165
1056 3 44.2127638306 5.3037951043 10.165
1057 2 29.7837441996 12.305 10.165
1058 3 29.2937441996 13.1537048957 10.165
1059 2 21.969019631 43.0675 13.185
1060 3 22.459019631 43.9162048957 13.185
1061 2 34.7567507433 38.1455 10.165
1062 3 35.2467507433 38.9942048957 10.165
1063 2 25.5211671622 51.681 10.165
1064 3 25.0311671622 52.5297048957 10.165
1065 2 14.8647245686 47.9895 13.185
1066 3 15.8447245686 47.9895 13.185
1067 2 27.6524556809 13.5355 13.185
1068 3 28.6324556809 13.5355 13.185
1069 2 36.888039262 44.298 10.165
1070 3 37.378039262 43.4492951043 10.165
1071 2 23.3898786435 43.0675 10.165
1072 3 24.3698786435 43.0675 10.165
1073 2 48.965340868 45.5285 10.165
1074 3 48.475340868 46.3772048957 10.165
1075 2 27.6524556809 40.6065 13.185
1076 3 27.1624556809 39.7577951043 13.185
1077 2 29.7837441996 49.22 10.165
1078 3 29.2937441996 50.0687048957 10.165
1079 2 28.3628851871 41.837 10.165
1080 3 28.8528851871 42.6857048957 10.165
1081 2 49.6757703743 14.766 13.185
1082 3 50.1657703743 15.6147048957 13.185
1083 2 42.5714753119 41.837 10.165
1084 3 42.0814753119 40.9882951043 10.165
1085 2 48.965340868 28.3015 10.165
1086 3 49.945340868 28.3015 10.165
1087 2 15.5751540749 17.227 13.185
1088 3 16.0651540749 18.0757048957 13.185
1089 2 26.2315966684 25.8405 13.185
1090 3 26.7215966684 24.9917951043 13.185
1091 2 42.5714753119 2.461 10.165
1092 3 43.5514753119 2.461 10.165
1093 2 26.2315966684 35.6845 10.165
1094 3 25.2515966684 35.6845 10.165
1095 2 19.8377311123 22.149 13.185
1096 3 20.3277311123 22.9977048957 13.185
1097 2 44.7027638306 18.4575 10.165
1098 3 44.2127638306 19.3062048957 10.165
1099 2 19.127301606 47.9895 10.165
1100 3 20.107301606 47.9895 10.165
1101 2 15.5751540749 22.149 13.185
1102 3 16.0651540749 21.3002951043 13.185
1103 2 34.046321237 7.383 13.185
1104 3 35.026321237 7.383 13.185
1105 2 41.1506162994 2.461 13.185
1106 3 40.1706162994 2.461 13.185
1107 2 19.8377311123 46.759 13.185
1108 3 20.3277311123 45.9102951043 13.185
1109 2 32.6254622246 29.532 10.165
1110 3 33.1154622246 30.3807048957 10.165
1111 2 36.1776097558 1.2305 10.165
1112 3 35.6876097558 2.0792048957 10.165
1113 2 19.127301606 23.3795 10.165
1114 3 18.637301606 24.2282048957 10.165
1115 2 11.3125770374 36.915 10.165
1116 3 11.8025770374 36.0662951043 10.165
1117 2 31.9150327183 30.7625 13.185
1118 3 31.4250327183 31.6112048957 13.185
1119 2 27.6524556809 8.6135 13.185
1120 3 28.6324556809 8.6135 13.185
1121 2 36.1776097558 52.9115 10.165
1122 3 35.6876097558 53.7602048957 10.165
1123 2 19.127301606 30.7625 13.185
1124 3 18.637301606 29.9137951043 13.185
1125 2 43.2819048181 52.9115 13.185
1126 3 42.3019048181 52.9115 13.185
1127 2 13.4438655561 25.8405 13.185
1128 3 13.9338655561 26.6892048957 13.185
1129 2 39.0193277807 35.6845 10.165
1130 3 39.5093277807 36.5332048957 10.165
1131 2 29.7837441996 4.922 10.165
1132 3 29.2937441996 5.7707048957 10.165
1133 2 36.1776097558 30.7625 13.185
1134 3 35.6876097558 29.9137951043 13.185
1135 2 26.2315966684 23.3795 10.165
1136 3 25.2515966684 23.3795 10.165
1137 2 25.5211671622 31.993 13.185
1138 3 25.0311671622 31.1442951043 13.185
1139 2 14.8647245686 30.7625 13.185
1140 3 15.8447245686 30.7625 13.185
1141 2 12.7334360499 19.688 10.165
1142 3 12.2434360499 18.8392951043 10.165
1143 2 17.7064425936 13.5355 13.185
1144 3 18.1964425936 14.3842048957 13.185
1145 2 39.0193277807 28.3015 10.165
1146 3 39.5093277807 29.1502048957 10.165
1147 2 48.965340868 8.6135 10.165
1148 3 49.945340868 8.6135 10.165
1149 2 32.6254622246 12.305 13.185
1150 3 33.1154622246 13.1537048957 13.185
1151 2 40.4401867932 23.3795 10.165
1152 3 39.9501867932 24.2282048957 10.165
1153 2 48.965340868 1.2305 10.165
1154 3 49.945340868 1.2305 10.165
1155 2 49.6757703743 7.383 13.185
1156 3 50.1657703743 6.5342951043 13.185
1157 2 40.4401867932 20.9185 13.185
1158 3 41.4201867932 20.9185 13.185
1159 2 29.7837441996 34.454 13.185
1160 3 29.2937441996 35.3027048957 13.185
1161 2 34.7567507433 18.4575 10.165
1162 3 35.2467507433 19.3062048957 10.165
1163 2 13.088650803 33.83875 10.415
1164 2 21.6138048779 37.53025 10.415
1165 2 22.6794491372 11.0745 12.935
1166 2 31.204603212 43.0675 10.415
1167 2 43.9923343243 20.9185 10.415
1168 2 28.007670434 46.14375 12.935
1169 2 22.6794491372 13.5355 10.415
1170 2 47.1892671024 38.76075 10.415
1171 2 30.1389589527 47.37425 12.935
1172 2 26.9420261746 1.2305 12.935
1173 2 42.926690065 37.53025 12.935
1174 2 49.3205556211 43.68275 12.935
1175 2 48.2549113618 13.5355 12.935
1176 2 21.6138048779 41.22175 12.935
1177 2 21.6138048779 26.45575 12.935
1178 2 25.8763819153 16.61175 12.935
1179 2 32.2702474714 36.29975 12.935
1180 2 43.9923343243 43.0675 12.935
1181 2 49.3205556211 41.22175 12.935
1182 2 30.1389589527 19.07275 10.415
1183 2 24.8107376559 0.0 10.415
1184 2 17.3512278404 27.68625 12.935
1185 2 45.0579785837 22.76425 10.415
1186 2 47.1892671024 28.91675 12.935
1187 2 42.926690065 26.45575 12.935
1188 2 15.2199393217 9.22875 10.415
1189 2 15.2199393217 36.29975 12.935
1190 2 15.2199393217 23.99475 10.415
1191 2 31.204603212 23.3795 12.935
1192 2 47.1892671024 16.61175 10.415
1193 2 36.5328245089 4.30675 10.415
1194 2 47.1892671024 0.61525 10.415
1195 2 23.7450933966 23.99475 12.935
1196 2 38.6641130276 6.76775 10.415
1197 2 34.4015359901 36.29975 12.935
1198 2 13.088650803 30.14725 12.935
1199 2 25.8763819153 9.22875 12.935
1200 2 25.8763819153 5.53725 12.935
1201 2 36.5328245089 51.06575 10.415
1202 2 13.088650803 26.45575 10.415
1203 2 15.2199393217 11.68975 10.415
1204 2 47.1892671024 46.14375 12.935
1205 2 10.9573622843 14.15075 12.935
1206 2 21.6138048779 28.91675 10.415
1207 2 31.204603212 33.2235 10.415
1208 2 21.6138048779 7.99825 12.935
1209 2 25.8763819153 49.83525 12.935
1210 2 31.204603212 28.3015 12.935
1211 2 30.1389589527 10.45925 10.415
1212 2 31.204603212 25.8405 12.935
1213 2 38.6641130276 51.06575 12.935
1214 2 47.1892671024 22.76425 10.415
1215 2 42.926690065 48.60475 10.415
1216 2 32.2702474714 47.37425 10.415
1217 2 39.7297572869 18.4575 10.415
1218 2 31.204603212 20.9185 12.935
1219 2 33.3358917308 27.071 10.415
1220 2 38.6641130276 11.68975 10.415
1221 2 28.007670434 17.84225 10.415
1222 2 13.088650803 16.61175 10.415
1223 2 17.3512278404 47.37425 10.415
1224 2 25.8763819153 33.83875 10.415
1225 2 47.1892671024 19.07275 10.415
1226 2 36.5328245089 14.15075 12.935
1227 2 28.007670434 26.45575 12.935
1228 2 32.2702474714 5.53725 12.935
1229 2 14.1542950623 40.6065 12.935
1230 2 38.6641130276 42.45225 10.415
1231 2 39.7297572869 13.5355 12.935
1232 2 43.9923343243 30.7625 10.415
1233 2 18.4168720998 43.0675 12.935
1234 2 23.7450933966 21.53375 12.935
1235 2 25.8763819153 3.07625 12.935
1236 2 13.088650803 44.91325 10.415
1237 2 19.4825163591 25.22525 12.935
1238 2 21.6138048779 26.45575 10.415
1239 2 28.007670434 32.60825 10.415
1240 2 33.3358917308 24.61 10.415
1241 2 35.4671802495 8.6135 10.415
1242 2 23.7450933966 51.06575 10.415
1243 2 10.9573622843 44.91325 10.415
1244 2 28.007670434 37.53025 10.415
1245 2 26.9420261746 20.9185 10.415
